c Generated map
c Size: 8 * 8, weights in range: 1 to 10, walls: True, with ratio 0.05
c dim 5 of 9
c
p sp 64 102
c graph contains 64 nodes and 102 arcs
c
a 1 2 9
a 2 1 9
a 2 10 9
a 10 2 9
a 2 3 1
a 3 2 1
a 3 11 6
a 11 3 6
a 5 13 8
a 13 5 8
a 5 6 6
a 6 5 6
a 6 7 9
a 7 6 9
a 7 15 9
a 15 7 9
a 7 8 1
a 8 7 1
a 8 16 4
a 16 8 4
a 10 18 5
a 18 10 5
a 10 11 9
a 11 10 9
a 11 19 8
a 19 11 8
a 11 12 6
a 12 11 6
a 12 20 5
a 20 12 5
a 12 13 2
a 13 12 2
a 13 21 2
a 21 13 2
a 15 23 1
a 23 15 1
a 15 16 7
a 16 15 7
a 16 24 9
a 24 16 9
a 17 25 5
a 25 17 5
a 17 18 4
a 18 17 4
a 18 26 2
a 26 18 2
a 18 19 8
a 19 18 8
a 19 27 7
a 27 19 7
a 19 20 7
a 20 19 7
a 20 28 3
a 28 20 3
a 20 21 4
a 21 20 4
a 21 29 3
a 29 21 3
a 21 22 7
a 22 21 7
a 22 30 5
a 30 22 5
a 22 23 2
a 23 22 2
a 23 31 9
a 31 23 9
a 23 24 8
a 24 23 8
a 24 32 1
a 32 24 1
a 25 33 1
a 33 25 1
a 25 26 5
a 26 25 5
a 26 34 3
a 34 26 3
a 26 27 1
a 27 26 1
a 27 35 1
a 35 27 1
a 27 28 7
a 28 27 7
a 28 36 8
a 36 28 8
a 28 29 4
a 29 28 4
a 29 37 4
a 37 29 4
a 29 30 2
a 30 29 2
a 30 38 10
a 38 30 10
a 30 31 10
a 31 30 10
a 31 39 7
a 39 31 7
a 31 32 7
a 32 31 7
a 32 40 1
a 40 32 1
a 33 41 2
a 41 33 2
a 33 34 7
a 34 33 7
a 34 42 2
a 42 34 2
a 34 35 8
a 35 34 8
a 35 43 8
a 43 35 8
a 35 36 3
a 36 35 3
a 36 44 2
a 44 36 2
a 36 37 7
a 37 36 7
a 37 45 5
a 45 37 5
a 37 38 5
a 38 37 5
a 38 46 9
a 46 38 9
a 38 39 5
a 39 38 5
a 39 47 4
a 47 39 4
a 39 40 2
a 40 39 2
a 40 48 2
a 48 40 2
a 41 49 3
a 49 41 3
a 41 42 2
a 42 41 2
a 42 50 3
a 50 42 3
a 42 43 1
a 43 42 1
a 43 51 4
a 51 43 4
a 43 44 2
a 44 43 2
a 44 52 5
a 52 44 5
a 44 45 4
a 45 44 4
a 45 53 7
a 53 45 7
a 45 46 7
a 46 45 7
a 46 54 3
a 54 46 3
a 46 47 9
a 47 46 9
a 47 55 4
a 55 47 4
a 47 48 1
a 48 47 1
a 48 56 2
a 56 48 2
a 49 57 2
a 57 49 2
a 49 50 8
a 50 49 8
a 50 58 1
a 58 50 1
a 50 51 4
a 51 50 4
a 51 59 8
a 59 51 8
a 51 52 3
a 52 51 3
a 52 60 2
a 60 52 2
a 52 53 6
a 53 52 6
a 53 61 5
a 61 53 5
a 53 54 5
a 54 53 5
a 54 62 4
a 62 54 4
a 54 55 9
a 55 54 9
a 55 63 6
a 63 55 6
a 55 56 7
a 56 55 7
a 56 64 9
a 64 56 9
a 57 58 9
a 58 57 9
a 58 59 7
a 59 58 7
a 59 60 5
a 60 59 5
a 60 61 2
a 61 60 2
a 61 62 7
a 62 61 7
a 62 63 9
a 63 62 9
a 63 64 4
a 64 63 4
